8	8
4	6	5	3	0	9	1	9	2	8	3	8	6	7	7	5
7	1	5	7	1	1	6	8	4	6	0	1	3	9	2	9
3	6	5	4	1	1	0	2	4	5	2	7	6	5	7	8
3	5	2	1	5	9	1	5	0	8	4	2	6	5	7	9
7	1	3	2	6	8	1	6	4	9	5	8	2	6	0	1
4	9	7	5	1	1	3	2	0	2	5	4	2	8	6	2
1	8	3	4	0	1	6	5	4	1	5	3	7	7	2	8
4	1	6	2	3	5	1	8	5	8	0	4	7	5	2	2
